p cnf 1000000 458.0
010101 010102 010103 010104 0
010201 010202 010203 010204 0
010301 010302 010303 010304 0
010401 010402 010403 010404 0
020101 020102 020103 020104 0
020201 020202 020203 020204 0
020301 020302 020303 020304 0
020401 020402 020403 020404 0
030101 030102 030103 030104 0
030201 030202 030203 030204 0
030301 030302 030303 030304 0
030401 030402 030403 030404 0
040101 040102 040103 040104 0
040201 040202 040203 040204 0
040301 040302 040303 040304 0
040401 040402 040403 040404 0
-010101 -010102 0
-010101 -010103 0
-010101 -010104 0
-010102 -010103 0
-010102 -010104 0
-010103 -010104 0
-010201 -010202 0
-010201 -010203 0
-010201 -010204 0
-010202 -010203 0
-010202 -010204 0
-010203 -010204 0
-010301 -010302 0
-010301 -010303 0
-010301 -010304 0
-010302 -010303 0
-010302 -010304 0
-010303 -010304 0
-010401 -010402 0
-010401 -010403 0
-010401 -010404 0
-010402 -010403 0
-010402 -010404 0
-010403 -010404 0
-020101 -020102 0
-020101 -020103 0
-020101 -020104 0
-020102 -020103 0
-020102 -020104 0
-020103 -020104 0
-020201 -020202 0
-020201 -020203 0
-020201 -020204 0
-020202 -020203 0
-020202 -020204 0
-020203 -020204 0
-020301 -020302 0
-020301 -020303 0
-020301 -020304 0
-020302 -020303 0
-020302 -020304 0
-020303 -020304 0
-020401 -020402 0
-020401 -020403 0
-020401 -020404 0
-020402 -020403 0
-020402 -020404 0
-020403 -020404 0
-030101 -030102 0
-030101 -030103 0
-030101 -030104 0
-030102 -030103 0
-030102 -030104 0
-030103 -030104 0
-030201 -030202 0
-030201 -030203 0
-030201 -030204 0
-030202 -030203 0
-030202 -030204 0
-030203 -030204 0
-030301 -030302 0
-030301 -030303 0
-030301 -030304 0
-030302 -030303 0
-030302 -030304 0
-030303 -030304 0
-030401 -030402 0
-030401 -030403 0
-030401 -030404 0
-030402 -030403 0
-030402 -030404 0
-030403 -030404 0
-040101 -040102 0
-040101 -040103 0
-040101 -040104 0
-040102 -040103 0
-040102 -040104 0
-040103 -040104 0
-040201 -040202 0
-040201 -040203 0
-040201 -040204 0
-040202 -040203 0
-040202 -040204 0
-040203 -040204 0
-040301 -040302 0
-040301 -040303 0
-040301 -040304 0
-040302 -040303 0
-040302 -040304 0
-040303 -040304 0
-040401 -040402 0
-040401 -040403 0
-040401 -040404 0
-040402 -040403 0
-040402 -040404 0
-040403 -040404 0
010101 010201 010301 010401 0
010102 010202 010302 010402 0
010103 010203 010303 010403 0
010104 010204 010304 010404 0
020101 020201 020301 020401 0
020102 020202 020302 020402 0
020103 020203 020303 020403 0
020104 020204 020304 020404 0
030101 030201 030301 030401 0
030102 030202 030302 030402 0
030103 030203 030303 030403 0
030104 030204 030304 030404 0
040101 040201 040301 040401 0
040102 040202 040302 040402 0
040103 040203 040303 040403 0
040104 040204 040304 040404 0
010101 020101 030101 040101 0
010102 020102 030102 040102 0
010103 020103 030103 040103 0
010104 020104 030104 040104 0
010201 020201 030201 040201 0
010202 020202 030202 040202 0
010203 020203 030203 040203 0
010204 020204 030204 040204 0
010301 020301 030301 040301 0
010302 020302 030302 040302 0
010303 020303 030303 040303 0
010304 020304 030304 040304 0
010401 020401 030401 040401 0
010402 020402 030402 040402 0
010403 020403 030403 040403 0
010404 020404 030404 040404 0
010101 010201 020101 020201 0
010102 010202 020102 020202 0
010103 010203 020103 020203 0
010104 010204 020104 020204 0
010301 010401 020301 020401 0
010302 010402 020302 020402 0
010303 010403 020303 020403 0
010304 010404 020304 020404 0
030101 030201 040101 040201 0
030102 030202 040102 040202 0
030103 030203 040103 040203 0
030104 030204 040104 040204 0
030301 030401 040301 040401 0
030302 030402 040302 040402 0
030303 030403 040303 040403 0
030304 030404 040304 040404 0
010101 0
010204 0
020304 0
020401 0
030301 0
030404 0
040104 0
040201 0
040303 0
040402 0
-010101 -010204 -010302 -010403 -020102 -020203 -020304 -020401 -030103 -030202 -030301 -030404 -040104 -040201 -040303 -040402 0
